CRYSTAL
PRIMVEC
 9.99350100000000 0.00000000000000 0.00000000000000
 0.00000000000000 9.99350100000000 0.00000000000000
 0.00000000000000 0.00000000000000 9.99350100000000
PRIMCOORD
 54 1
 73     0.10278673978774    -0.00627272689368     0.09985162690816
 73     1.76617914404076     1.66146004507554     1.76673320666226
 73     0.10031497395078    -0.00618277097866     3.43234639341133
 73     1.76547834393140     1.66149488203306     5.09697135999755
 73     0.10108342663745    -0.00694257643722     6.76387536374887
 73     1.76654237881261     1.66154307423826     8.42878426296490
 73     0.10119513357566     3.32617672326529     0.09978555923474
 73     1.76608582001770     4.99335516013487     1.76855261972311
 73     0.09905144739405     3.32588970595595     3.43040969224104
 73     1.76432872740390     4.99208115913006     5.09788262721375
 73     0.09966437695752     3.32324952677117     6.76281532499820
 73     1.76596818910834     4.99329038589484     8.42702187901251
 73     0.10206560249741     6.65725744051971     0.09914346671122
 73     1.76762636026028     8.32482795507418     1.76806343777069
 73     0.10100154062783     6.65795846128397     3.43130555183843
 73     1.76679206195075     8.32297230018527     5.09747368490998
 73     0.10104563402581     6.65740748902299     6.76368053794792
 73     1.76941772824180     8.32329649397280     8.42898740938688
 73     3.43165588093470    -0.00478642763553     0.10140201334187
 73     5.09771591652197     1.66080267485187     1.76814958026266
 73     3.43169395046897    -0.00561381212617     3.43397526970362
 73     5.09763260037057     1.66149164390358     5.09660615556855
 73     3.43251371531175    -0.00511007374496     6.76291341856039
 73     5.09670601153284     1.66089783954912     8.43139169242415
 73     3.43041976949434     3.32688826427767     0.10211431126360
 73     5.09890183238477     4.99140792465635     1.76595726966405
 73     3.43088884301807     3.32702966339228     3.43294791575055
 73     5.09632167104091     4.99183032074134     5.09647693394819
 73     3.43106821328707     3.32463570973068     6.76307518337120
 73     5.09794445947448     4.99298130202636     8.42859865539428
 73     3.43284770826390     6.65656045641680     0.10203225620243
 73     5.09931094115626     8.32471317687418     1.76725669968496
 73     3.43380175730476     6.65719576833443     3.43241168616583
 73     5.09898624323638     8.32404656697024     5.09774358397283
 73     3.43331730450475     6.65593924931258     6.76313247743777
 73     5.09879326615031     8.32356597222954     8.43046738326587
 73     6.76347402524364    -0.00522858117737     0.10101694731428
 73     8.42780254898466     1.66158115553344     1.76462734314854
 73     6.76420597883829    -0.00636136823762     3.43283449855629
 73     8.42942540506603     1.65990322860935     5.09726048254304
 73     6.76295151522037    -0.00401849390490     6.76404317166121
 73     8.42839317623748     1.66043752350858     8.42851519814469
 73     6.76259025376188     3.32595213242520     0.09965947979154
 73     8.43022571064204     4.99276021364116     1.76441357545015
 73     6.76229111948605     3.32635737120264     3.43245548073461
 73     8.42913569075361     4.99175470051024     5.09858851338809
 73     6.76088673953846     3.32300007952790     6.76167414119640
 73     8.42834934316443     4.99089095542982     8.42642633473733
 73     6.76406570468505     6.65604403580415     0.09992964215951
 73     8.42960310434260     8.32457156410431     1.76524012921373
 73     6.76302925409400     6.65641105727534     3.43142563328454
 73     8.42915813338439     8.32240494063597     5.09675419013494
 73     6.76252087589663     6.65638085597583     6.76309860425748
 73     8.42906368072579     8.32248744183011     8.42971494086836
