CRYSTAL
PRIMVEC
 9.99350100000000 0.00000000000000 0.00000000000000
 0.00000000000000 9.99350100000000 0.00000000000000
 0.00000000000000 0.00000000000000 9.99350100000000
PRIMCOORD
 55 1
 73     0.02117360602606     0.02850935647853     0.17224108097612
 73     1.65759002234312     1.67987542262887     1.89004726822271
 73     0.02097499867981     0.02726995206877     3.60637609777492
 73     1.65722200674256     1.71507526199288     5.22464273018729
 73    -0.01929508565107     0.02738994885501     6.88410984557250
 73     1.65720160238333     1.71624075673546     8.54687559109092
 73    -0.05669831243598     3.30886890431229     0.28155415753067
 73     1.65884066102219     5.02501392442536     1.88862486427617
 73    -0.05803853968383     3.30984421422235     3.49621027593921
 73     1.66082464141565     5.02607863368212     4.81347876219207
 73    -0.00966129559999     3.35703468686809     6.88421204259761
 73     1.65707765869265     5.02349220754872     8.95349073355083
 73    -0.05699078045325     6.74114552143952     0.28160912494749
 73     1.65677400998131     8.36882210773801     1.88859918722721
 73    -0.05863789587710     6.73975669685193     3.49657164593772
 73     1.65686417855892     8.33259340725428     5.22532456052334
 73    -0.00986455358468     6.69081114903537     6.88385826667944
 73     1.65675544592881     8.33287268477743     8.54463362401372
 73     3.29467365124146     0.02722387119085     0.17121984516436
 73     4.99769348426865     1.68638729316359     1.88827141101636
 73     3.29411064475026     0.02797386720495     3.60623603188124
 73     4.99719425544480     1.68386076291705     5.23218865756318
 73     3.33404320945732     0.02754791059462     6.88577409139979
 73     4.99650354964535     1.68483070149559     8.53969848759915
 73     3.37226332046800     3.30950518370385     0.28136468631307
 73     5.00015173557146     5.02491137683559     1.88901644760263
 73     3.37440087592028     3.30553565142533     3.49684866561991
 73     4.96577402692905     5.02458711728257     5.22501417106126
 73     3.32242304526371     3.35675950910833     6.88506076189416
 73     4.96454826385643     5.02545109814892     8.54590705398338
 73     3.37221098841954     6.74115926070239     0.28154221405718
 73     4.99738275585581     8.36354790457416     1.88739640169043
 73     3.37525758163192     6.74374009324971     3.49595204683434
 73     4.99797216054831     8.36464043859848     5.23096373657913
 73     3.32343751784926     6.69076938428286     6.88456877684177
 73     4.99758765246855     8.36387211479322     8.53975607512442
 73     6.65480100618433     0.02912540916287     0.23848582042516
 73     8.31328142661855     1.68723364741730     1.88840040873447
 73     6.65414785943068     0.02863317842706     3.53960250087315
 73     8.31112643579249     1.68553811226944     5.23101276313753
 73     6.65462472152030     0.02790173155199     6.88494736234054
 73     8.31176236530380     1.68569004302267     8.54033607431795
 73     6.65479646191283     3.38955474577348     0.16930604480599
 73     8.30740366427243     5.02434629143872     1.88588365882191
 73     6.65488358425918     3.38775354929111     3.60591827748687
 73     8.34016500775391     5.02464199729292     5.22480562424801
 73     6.65171144754817     3.34785777476591     6.88510188766403
 73     8.34234302557058     5.02324565433475     8.54534269056945
 73     6.65377683959475     6.66086208651881     0.17179151369494
 73     8.31294150467492     8.36272533074998     1.88764819080980
 73     6.65499357318516     6.66211873721687     3.60431720335694
 73     8.31108116915524     8.36374078832591     5.23021902998837
 73     6.65354002711508     6.70255297301373     6.88594605254885
 73     8.31170209274733     8.36443320859581     8.54107768331377
  5     1.65706006224183     5.02502884911365     6.88335919751798
