CRYSTAL
PRIMVEC
 9.99350100000000 0.00000000000000 0.00000000000000
 0.00000000000000 9.99350100000000 0.00000000000000
 0.00000000000000 0.00000000000000 9.99350100000000
PRIMCOORD
 57 1
 73     0.08316866162837     0.18668636676066     0.40090420627040
 73     1.75057564034043     1.85325569071302     2.07568965777816
 73     0.10166973891612     0.18742428551248     3.74338841608474
 73     1.74190379049213     1.89096532767378     5.37744484011582
 73     0.08406331996818     0.21454100848845     7.05136784322922
 73     1.73419824960165     1.84950755211453     8.74226098359117
 73    -0.10958706528306     3.33611342542824     0.59034123578817
 73     1.73369622528849     5.18002345229892     2.07687470720690
 73     0.08236260759517     3.53048367995689     3.74246557438476
 73     1.80833187187223     5.25449753634149     5.31055842328948
 73     0.06548694170043     3.51169598374667     7.03991649083505
 73     1.33277482852257     4.77922263823916     9.14549125416211
 73     0.06566539208519     6.88473791148475     0.41690632354051
 73     1.74263143595533     8.54620842531284     2.03795386899111
 73     0.08402597138708     6.87131762368021     3.71466540451320
 73     1.82701035904445     8.50623766350874     5.41594022997629
 73     0.02763442772639     6.84322550512801     7.08022059162076
 73     1.80887982006079     8.60761889469616     8.66708291694632
 73     3.42549162600644     0.21359271250535     0.39705074067946
 73     5.07877764948083     1.87022192524423     2.05676035613827
 73     3.42105516486399     0.23937597965955     3.68803475916657
 73     5.10607181757573     1.90003001389672     5.37083437174237
 73     3.44211186198449     0.40666444036729     7.03486060686932
 73     5.09887789128150     1.88988508461071     8.73232551811545
 73     3.43860135329738     3.51123784270539     0.41601934052983
 73     5.09844756169556     5.18894006559089     2.03775527063441
 73     3.42440863291021     3.52975649265344     3.71413316076891
 73     5.06049821375608     5.27381820614776     5.41365601701880
 73     3.39691808657478     3.47291152744367     7.07885015137395
 73     5.16407765689900     5.25478403161957     8.66660399002144
 73     3.39829072101764     6.84366163091919     0.45308896928085
 73     5.10548637670198     8.55228305167607     2.02880161055077
 73     3.44016857000309     6.88809167732725     3.51861561340555
 73     5.10264289852613     8.54944549633405     5.37134421638861
 73     2.77744419888456     6.22057726619394     7.69721978531218
 73     5.06074844445108     8.50526945816772     8.64637901290165
 73     6.73356085641439     0.18611383316594     0.38001252882023
 73     8.36194060115148     1.81491064369826     2.11421342698187
 73     6.74393555252682     0.19758489391493     3.73165115910321
 73     8.41713446240690     1.87157329207567     5.39732747951865
 73     6.78619599912123     0.23940018790032     7.05479227679218
 73     8.39931684823131     1.85129200612414     8.72537119322152
 73     6.73368577232378     3.53007079940852     0.39911241865025
 73     8.39969299557116     5.19764960090353     2.07592310410973
 73     6.73220428318981     3.54919321265567     3.74332663524568
 73     8.43862095007192     5.18951171618663     5.37724925758030
 73     6.76108756809802     3.53129518411016     7.05148983282136
 73     8.39785014089241     5.18147894237968     8.74235663282670
 73     6.76108295017624     6.87118156642023     0.39776931270088
 73     8.41793371760215     8.52666407890650     2.05924415974720
 73     6.78614139071439     6.86748741816718     3.68905314590852
 73     8.44712965422394     8.55417568715871     5.36928314479008
 73     6.95659042573696     6.88907903809554     7.03430682019230
 73     8.43753953297040     8.54629883894564     8.73520911588792
  5     3.48543219709780     8.19747306365567    -3.00324422356174
  5     4.75420350221868     6.93045668548615    -3.00596375725713
  5     3.48502466773543     6.93033637996481     5.72059332979670
